
Gurobi 10.0.1 (mac64[arm]) logging started Mon Sep 18 22:42:28 2023

Set parameter LogFile to value "scenario_capacity/CAP_g/results/CAP_g_-50/mip_log.txt"
Gurobi Optimizer version 10.0.1 build v10.0.1rc0 (mac64[arm])

CPU model: Apple M1
Thread count: 8 physical cores, 8 logical processors, using up to 8 threads

Optimize a model with 1694 rows, 6293 columns and 24772 nonzeros
Model fingerprint: 0xc0886a40
Model has 8978 general constraints
Variable types: 1 continuous, 6292 integer (408 binary)
Coefficient statistics:
  Matrix range     [6e-02, 3e+05]
  Objective range  [9e-02, 2e+05]
  Bounds range     [1e+00, 2e+07]
  RHS range        [4e+03, 2e+04]
  GenCon rhs range [1e+00, 1e+00]
  GenCon coe range [1e+00, 1e+00]
Presolve removed 44 rows and 373 columns
Presolve time: 0.07s
Presolved: 1650 rows, 5920 columns, 23713 nonzeros
Presolved model has 4 SOS constraint(s)
Variable types: 0 continuous, 5920 integer (34 binary)

Root relaxation: objective 5.259885e+07, 8010 iterations, 0.13 seconds (0.17 work units)

    Nodes    |    Current Node    |     Objective Bounds      |     Work
 Expl Unexpl |  Obj  Depth IntInf | Incumbent    BestBd   Gap | It/Node Time

     0     0 5.2599e+07    0  336          - 5.2599e+07      -     -    0s
H    0     0                    5.898603e+07 5.3698e+07  8.96%     -    0s
     0     0 5.3771e+07    0  703 5.8986e+07 5.3771e+07  8.84%     -    0s
H    0     0                    5.884736e+07 5.3771e+07  8.63%     -    0s
H    0     0                    5.771939e+07 5.3771e+07  6.84%     -    0s
     0     0 5.3829e+07    0  775 5.7719e+07 5.3829e+07  6.74%     -    0s
     0     0 5.3829e+07    0  743 5.7719e+07 5.3829e+07  6.74%     -    0s
     0     0 5.3829e+07    0  742 5.7719e+07 5.3829e+07  6.74%     -    0s
     0     0 5.3829e+07    0  742 5.7719e+07 5.3829e+07  6.74%     -    0s
     0     0 5.3947e+07    0  782 5.7719e+07 5.3947e+07  6.54%     -    0s
H    0     0                    5.770528e+07 5.3947e+07  6.51%     -    0s
     0     0 5.3966e+07    0  796 5.7705e+07 5.3966e+07  6.48%     -    0s
     0     0 5.3974e+07    0  794 5.7705e+07 5.3974e+07  6.47%     -    0s
     0     0 5.3976e+07    0  797 5.7705e+07 5.3976e+07  6.46%     -    0s
     0     0 5.3978e+07    0  799 5.7705e+07 5.3978e+07  6.46%     -    0s
     0     0 5.3994e+07    0  799 5.7705e+07 5.3994e+07  6.43%     -    0s
     0     0 5.3994e+07    0  801 5.7705e+07 5.3994e+07  6.43%     -    0s
     0     0 5.4045e+07    0  849 5.7705e+07 5.4045e+07  6.34%     -    0s
H    0     0                    5.735555e+07 5.4045e+07  5.77%     -    0s
     0     0 5.4074e+07    0  831 5.7356e+07 5.4074e+07  5.72%     -    0s
     0     2 5.4074e+07    0  821 5.7356e+07 5.4074e+07  5.72%     -    0s
H   33    39                    5.696600e+07 5.4232e+07  4.80%   616    1s
H   38    39                    5.696542e+07 5.4234e+07  4.80%   589    1s
H   77    73                    5.695452e+07 5.4295e+07  4.67%   408    1s
H   79    73                    5.694502e+07 5.4295e+07  4.65%   403    1s
H   81    73                    5.689960e+07 5.4295e+07  4.58%   398    1s
H   84    80                    5.682330e+07 5.4295e+07  4.45%   392    1s
H   91    80                    5.680861e+07 5.4295e+07  4.43%   382    1s
H  568   272                    5.679179e+07 5.4671e+07  3.73%   215    2s
H  571   272                    5.659102e+07 5.4674e+07  3.39%   214    2s
H 1462   691                    5.659102e+07 5.4939e+07  2.92%   154    4s
  1468   698 5.4939e+07   13  278 5.6591e+07 5.4939e+07  2.92%   159    5s
H 1630   729                    5.659098e+07 5.4939e+07  2.92%   160    5s
  6297   951 5.5746e+07   28  209 5.6591e+07 5.5526e+07  1.88%   105   10s
H 8766  1207                    5.652852e+07 5.5874e+07  1.16%  96.4   11s
* 9059  1127              46    5.650500e+07 5.5874e+07  1.12%  93.5   11s
H 9378   774                    5.649933e+07 5.5946e+07  0.98%  92.9   11s
H 9444   773                    5.649929e+07 5.5959e+07  0.96%  92.7   11s
 15173   392     cutoff   28      5.6499e+07 5.6450e+07  0.09%  88.7   15s

Explored 15802 nodes (1372883 simplex iterations) in 15.26 seconds (16.24 work units)
Thread count was 8 (of 8 available processors)

Solution count 10: 5.64993e+07 5.64993e+07 5.6505e+07 ... 5.68233e+07

Optimal solution found (tolerance 1.00e-04)
Best objective 5.649929016150e+07, best bound 5.649881501046e+07, gap 0.0008%
